Si16
1.0
  10.8599999999999994    0.0000000000000000    0.0000000000000000
   0.0000000000000000   10.8599999999999994    0.0000000000000000
   0.0000000000000000    0.0000000000000000   10.8599999999999994
Si
16
direct
   0.0000000000000000    0.0000000000000000    0.0000000000000000 Si
   0.0000000000000000    0.0000000000000000    0.5000000000000000 Si
   0.0000000000000000    0.5000000000000000    0.0000000000000000 Si
   0.0000000000000000    0.5000000000000000    0.5000000000000000 Si
   0.5000000000000000    0.0000000000000000    0.0000000000000000 Si
   0.5000000000000000    0.0000000000000000    0.5000000000000000 Si
   0.5000000000000000    0.5000000000000000    0.0000000000000000 Si
   0.5000000000000000    0.5000000000000000    0.5000000000000000 Si
   0.1250000000000000    0.1250000000000000    0.1250000000000000 Si
   0.1250000000000000    0.1250000000000000    0.6250000000000000 Si
   0.1250000000000000    0.6250000000000000    0.1250000000000000 Si
   0.1250000000000000    0.6250000000000000    0.6250000000000000 Si
   0.6250000000000000    0.1250000000000000    0.1250000000000000 Si
   0.6250000000000000    0.1250000000000000    0.6250000000000000 Si
   0.6250000000000000    0.6250000000000000    0.1250000000000000 Si
   0.6250000000000000    0.6250000000000000    0.6250000000000000 Si
